(set-logic HORN)
(set-info :source |
    Benchmark: C_VC
    Output by Princess (http://www.philipp.ruemmer.org/princess.shtml)
|)
(set-info :status sat)
;===============================================================================
; Encoding of Heap sorts and operations
;-------------------------------------------------------------------------------
(define-sort Addr() Int)
(declare-datatypes ((AddrRange 0))
                   (((AddrRange (AddrRangeStart Addr) (AddrRangeSize Int)))))

(declare-datatypes ((HeapObject 0) (node 0))
                   (((O_Int (getInt Int)) (O_UInt (getUInt Int)) (O_Addr (getAddr Addr)) (O_node (getnode node)) (defObj))
                   ((node (data Int) (next Addr)))))
(declare-datatypes ((BatchAllocResHeap 0) (AllocResHeap 0) (Heap 0))
                   (((BatchAllocResHeap   (newBatchHeap Heap) (newAddrRange AddrRange)))
                   ((AllocResHeap   (newHeap Heap) (newAddr Addr)))
                    ((HeapCtor (HeapSize Int)
                               (HeapContents (Array Addr HeapObject))))))
(define-fun nullAddr  () Addr 0)
(define-fun validHeap     ((h Heap) (p Addr)) Bool
  (and (>= (HeapSize h) p) (> p 0)))
(define-fun emptyHeap () Heap (
  HeapCtor 0 (( as const (Array Addr HeapObject)) defObj)))
(define-fun readHeap ((h Heap) (p Addr)) HeapObject
  (ite (validHeap h p)
       (select (HeapContents h) p)
       defObj))
(define-fun writeHeap ((h Heap) (p Addr) (o HeapObject)) Heap
  (ite (validHeap h p)
       (HeapCtor (HeapSize h) (store (HeapContents h) p o))
       h))
(define-fun allocHeap   ((h Heap) (o HeapObject)) AllocResHeap
  (AllocResHeap (HeapCtor (+ 1 (HeapSize h))
                    (store (HeapContents h) (+ 1 (HeapSize h)) o))
          (+ 1 (HeapSize h))))
(define-fun Heap-eq     ((h1 Heap) (h2 Heap)) Bool
  (forall ((p Addr))
          (and (= (validHeap h1 p) (validHeap h2 p))
               (= (readHeap h1 p) (readHeap h2 p)))))
(define-fun nthAddrRange((ar AddrRange) (n Int)) Addr
  (ite (and (>= n 0) (< n (AddrRangeSize ar)))
       (+ (AddrRangeStart ar) n)
       nullAddr))
(define-fun withinHeap ((ar AddrRange ) (p Addr)) Bool
  (and (>= p (AddrRangeStart ar)) (< p (+ (AddrRangeStart ar) (AddrRangeSize ar)))))

(declare-fun batchAllocHeap     (Heap Heap HeapObject Int Int) Bool)
(declare-fun batchAllocPostHeap (Heap Heap HeapObject Int) Bool)

(assert (forall ((h1 Heap) (h2 Heap) (o HeapObject) (n1 Int) (n2 Int))
                (=> (and (> n2 0) (batchAllocHeap h1 h2 o n1 n2))
                   (batchAllocHeap h1 (newHeap (allocHeap h2 o)) o n1 (- n2 1)))))
(assert (forall ((h1 Heap) (h2 Heap) (o HeapObject) (n1 Int) (n2 Int))
                (=> (and (<= n2 0) (batchAllocHeap h1 h2 o n1 n2))
                   (batchAllocPostHeap h1 h2 o n1))))

(declare-fun batchWriteHeap     (Heap Heap Addr Addr HeapObject Int Int) Bool)
(declare-fun batchWritePostHeap (Heap Heap Addr HeapObject Int) Bool)

(assert (forall ((h1 Heap) (h2 Heap) (a1 Addr) (a2 Addr) (o HeapObject) (n1 Int) (n2 Int))
                (=> (and (> n2 0) (batchWriteHeap h1 h2 a1 a2 o n1 n2))
                   (batchWriteHeap h1 (writeHeap h2 a2 o) a1 (+ a2 1) o n1 (- n2 1)))))
(assert (forall ((h1 Heap) (h2 Heap) (a1 Addr) (a2 Addr) (o HeapObject) (n1 Int) (n2 Int))
                (=> (and (<= n2 0) (batchWriteHeap h1 h2 a1 a2 o n1 n2))
                   (batchWritePostHeap h1 h2 a1 o n1))))

;===============================================================================
(declare-fun inv_main10 (Heap Int Int Int Int Addr) Bool)
(declare-fun inv_main17 (Heap Int Int Int Int Addr Int Addr) Bool)
(declare-fun inv_main20 (Heap Int Int Int Int Addr Int Addr Int) Bool)
(declare-fun inv_main23 (Heap Int Int Int Int Addr Int Addr) Bool)
(declare-fun inv_main25 (Heap Int Int Int Int Addr Addr) Bool)
(declare-fun inv_main37 (Heap Int Int Addr Int Int Int Int Addr) Bool)
(declare-fun inv_main4 (Heap Int Int) Bool)
(declare-fun inv_main40 (Heap Int Int Addr Int Int Int Int Addr Int) Bool)
(declare-fun inv_main43 (Heap Int Int Addr Int Int Int Int Addr) Bool)
(declare-fun inv_main45 (Heap Int Int Addr Int Int Int Addr) Bool)
(declare-fun inv_main47 (Heap Int Int Addr Int Addr) Bool)
(declare-fun inv_main48 (Heap Int Int Addr Int Addr) Bool)
(declare-fun inv_main53 (Heap Int Int Addr Int Addr Int) Bool)
(declare-fun inv_main55 (Heap Int Int Addr Int Addr Int) Bool)
(declare-fun inv_main56 (Heap Int Int Addr Int Addr Int Addr) Bool)
(declare-fun inv_main68 (Heap Int Int Addr Int Addr Int Addr) Bool)
(declare-fun inv_main71 (Heap Int Int Addr Int Addr Int) Bool)
(assert (forall ((var0 Heap)) (or (not (= var0 emptyHeap)) (inv_main4 var0 2 1))))
(assert (forall ((var0 Int) (var1 Addr) (var2 Int) (var3 Int) (var4 Int) (var5 Int) (var6 node) (var7 Heap) (var8 Addr) (var9 Addr) (var10 Int) (var11 Int) (var12 Int) (var13 Int) (var14 Heap)) (or (not (and (and (and (and (and (and (and (and (and (and (inv_main10 var14 var13 var12 var11 var10 var9) (<= 0 (+ var11 (* (- 1) 1)))) (= var8 (newAddr (allocHeap var14 (O_node var6))))) (= var0 var10)) (= var1 var9)) (= var2 var10)) (= var3 var11)) (= var4 var12)) (= var5 var13)) (= var7 (newHeap (allocHeap var14 (O_node var6))))) (not (= nullAddr var8)))) (inv_main17 var7 var5 var4 var3 var2 var1 var0 var8))))
(assert (forall ((var0 Addr) (var1 Int) (var2 Addr) (var3 Int) (var4 Int) (var5 Int) (var6 Int) (var7 Heap)) (or (not (and (and (inv_main17 var7 var6 var5 var4 var3 var2 var1 var0) (is-O_node (readHeap var7 var0))) (is-O_node (readHeap var7 var0)))) (inv_main23 (writeHeap var7 var0 (O_node (node (data (getnode (readHeap var7 var0))) nullAddr))) var6 var5 var4 var3 var2 var1 var0))))
(assert (forall ((var0 Int) (var1 Addr) (var2 Int) (var3 Addr) (var4 Int) (var5 Int) (var6 Heap)) (or (not (and (inv_main55 var6 var5 var4 var3 var2 var1 var0) (is-O_node (readHeap var6 var1)))) (inv_main56 var6 var5 var4 var3 var2 var1 var0 (next (getnode (readHeap var6 var1)))))))
(assert (forall ((var0 Addr) (var1 Int) (var2 Addr) (var3 Int) (var4 Addr) (var5 Int) (var6 Int) (var7 Heap)) (or (not (and (and (inv_main56 var7 var6 var5 var4 var3 var2 var1 var0) (= var5 (data (getnode (readHeap var7 var2))))) (is-O_node (readHeap var7 var2)))) (inv_main53 var7 var6 var5 var4 var3 var0 (+ var1 1)))))
(assert (forall ((var0 Addr) (var1 Addr) (var2 Int) (var3 Addr) (var4 Int) (var5 Int) (var6 Heap) (var7 Addr) (var8 Int) (var9 Addr) (var10 Int) (var11 Int) (var12 Heap)) (or (not (and (and (and (and (and (and (and (and (inv_main48 var12 var11 var10 var9 var8 var7) (= var0 (next (getnode (readHeap var12 var7))))) (= var1 var7)) (= var2 var8)) (= var3 var9)) (= var4 var10)) (= var5 var11)) (= var6 var12)) (is-O_node (readHeap var12 var7)))) (inv_main53 var6 var5 var4 var3 var2 var0 1))))
(assert (forall ((var0 Addr) (var1 Int) (var2 Addr) (var3 Int) (var4 Int) (var5 Int) (var6 Int) (var7 Heap) (var8 Addr) (var9 Int) (var10 Addr) (var11 Int) (var12 Int) (var13 Int) (var14 Int) (var15 Heap)) (or (not (and (and (and (and (and (and (and (and (and (and (inv_main23 var15 var14 var13 var12 var11 var10 var9 var8) (= var0 var8)) (= var1 var9)) (= var2 var10)) (= var3 var11)) (= var4 var12)) (= var5 var13)) (= var6 var14)) (= var7 (writeHeap var15 var8 (O_node (node var9 (next (getnode (readHeap var15 var8)))))))) (is-O_node (readHeap var15 var8))) (is-O_node (readHeap var15 var8)))) (inv_main25 var7 var6 var5 var4 var3 var2 var0))))
(assert (forall ((var0 Addr) (var1 Addr) (var2 Int) (var3 Int) (var4 Int) (var5 Int) (var6 Heap) (var7 Addr) (var8 Addr) (var9 Int) (var10 Int) (var11 Int) (var12 Int) (var13 Heap)) (or (not (and (and (and (and (and (and (and (and (and (inv_main25 var13 var12 var11 var10 var9 var8 var7) (= var0 var7)) (= var1 var8)) (= var2 var9)) (= var3 var10)) (= var4 var11)) (= var5 var12)) (= var6 (writeHeap var13 var7 (O_node (node (data (getnode (readHeap var13 var7))) var8))))) (is-O_node (readHeap var13 var7))) (is-O_node (readHeap var13 var7)))) (inv_main10 var6 var5 var4 (+ var3 (* (- 1) 1)) var2 var0))))
(assert (forall ((var0 Addr) (var1 Int) (var2 Int) (var3 Int) (var4 Int) (var5 Heap) (var6 Int) (var7 Int) (var8 Heap)) (or (not (and (and (and (and (and (and (inv_main4 var8 var7 var6) (= var0 nullAddr)) (= var1 var6)) (= var2 var7)) (= var3 var6)) (= var4 var7)) (= var5 var8))) (inv_main10 var5 var4 var3 var2 var1 var0))))
(assert (forall ((var0 Int) (var1 Addr) (var2 Int) (var3 Addr) (var4 Int) (var5 Int) (var6 Heap)) (or (not (and (inv_main53 var6 var5 var4 var3 var2 var1 var0) (not (= var1 nullAddr)))) (inv_main55 var6 var5 var4 var3 var2 var1 var0))))
(assert (forall ((var0 Int) (var1 Addr) (var2 Int) (var3 Int) (var4 Int) (var5 Int) (var6 Addr) (var7 Int) (var8 Int) (var9 Heap)) (or (not (inv_main40 var9 var8 var7 var6 var5 var4 var3 var2 var1 var0)) (inv_main40 var9 var8 var7 var6 var5 var4 var3 var2 var1 var0))))
(assert (forall ((var0 Int) (var1 Int) (var2 Int) (var3 Int) (var4 Addr) (var5 Int) (var6 Int) (var7 node) (var8 Heap) (var9 Addr) (var10 Addr) (var11 Int) (var12 Int) (var13 Int) (var14 Int) (var15 Heap)) (or (not (and (and (and (and (and (and (and (and (and (and (and (inv_main10 var15 var14 var13 var12 var11 var10) (not (<= 0 (+ var12 (* (- 1) 1))))) (= var9 (newAddr (allocHeap var15 (O_node var7))))) (= var0 5)) (= var1 5)) (= var2 3)) (= var3 5)) (= var4 var10)) (= var5 var13)) (= var6 var14)) (= var8 (newHeap (allocHeap var15 (O_node var7))))) (= nullAddr var9))) (inv_main40 var8 var6 var5 var4 var3 var2 var1 var0 var9 1))))
(assert (forall ((var0 Addr) (var1 Int) (var2 Int) (var3 Int) (var4 Addr) (var5 Int) (var6 Int) (var7 Heap) (var8 Addr) (var9 Int) (var10 Int) (var11 Int) (var12 Addr) (var13 Int) (var14 Int) (var15 Heap)) (or (not (and (and (and (and (and (and (and (and (and (and (inv_main45 var15 var14 var13 var12 var11 var10 var9 var8) (= var0 var8)) (= var1 var9)) (= var2 var10)) (= var3 var11)) (= var4 var12)) (= var5 var13)) (= var6 var14)) (= var7 (writeHeap var15 var8 (O_node (node (data (getnode (readHeap var15 var8))) var12))))) (is-O_node (readHeap var15 var8))) (is-O_node (readHeap var15 var8)))) (inv_main47 var7 var6 var5 var0 var3 var0))))
(assert (forall ((var0 Addr) (var1 Int) (var2 Addr) (var3 Int) (var4 Int) (var5 Heap)) (or (not (and (and (inv_main47 var5 var4 var3 var2 var1 var0) (= var1 (data (getnode (readHeap var5 var0))))) (is-O_node (readHeap var5 var0)))) (inv_main48 var5 var4 var3 var2 var1 var0))))
(assert (forall ((var0 Int) (var1 Addr) (var2 Int) (var3 Addr) (var4 Int) (var5 Int) (var6 Int) (var7 Int) (var8 Heap)) (or (not (inv_main20 var8 var7 var6 var5 var4 var3 var2 var1 var0)) (inv_main20 var8 var7 var6 var5 var4 var3 var2 var1 var0))))
(assert (forall ((var0 Int) (var1 Addr) (var2 Int) (var3 Int) (var4 Int) (var5 Int) (var6 node) (var7 Heap) (var8 Addr) (var9 Addr) (var10 Int) (var11 Int) (var12 Int) (var13 Int) (var14 Heap)) (or (not (and (and (and (and (and (and (and (and (and (and (inv_main10 var14 var13 var12 var11 var10 var9) (<= 0 (+ var11 (* (- 1) 1)))) (= var8 (newAddr (allocHeap var14 (O_node var6))))) (= var0 var10)) (= var1 var9)) (= var2 var10)) (= var3 var11)) (= var4 var12)) (= var5 var13)) (= var7 (newHeap (allocHeap var14 (O_node var6))))) (= nullAddr var8))) (inv_main20 var7 var5 var4 var3 var2 var1 var0 var8 1))))
(assert (forall ((var0 Int) (var1 Int) (var2 Int) (var3 Int) (var4 Addr) (var5 Int) (var6 Int) (var7 node) (var8 Heap) (var9 Addr) (var10 Addr) (var11 Int) (var12 Int) (var13 Int) (var14 Int) (var15 Heap)) (or (not (and (and (and (and (and (and (and (and (and (and (and (inv_main10 var15 var14 var13 var12 var11 var10) (not (<= 0 (+ var12 (* (- 1) 1))))) (= var9 (newAddr (allocHeap var15 (O_node var7))))) (= var0 5)) (= var1 5)) (= var2 3)) (= var3 5)) (= var4 var10)) (= var5 var13)) (= var6 var14)) (= var8 (newHeap (allocHeap var15 (O_node var7))))) (not (= nullAddr var9)))) (inv_main37 var8 var6 var5 var4 var3 var2 var1 var0 var9))))
(assert (forall ((var0 Addr) (var1 Int) (var2 Int) (var3 Int) (var4 Int) (var5 Addr) (var6 Int) (var7 Int) (var8 Heap) (var9 Addr) (var10 Int) (var11 Int) (var12 Int) (var13 Int) (var14 Addr) (var15 Int) (var16 Int) (var17 Heap)) (or (not (and (and (and (and (and (and (and (and (and (and (and (inv_main43 var17 var16 var15 var14 var13 var12 var11 var10 var9) (= var0 var9)) (= var1 var10)) (= var2 var11)) (= var3 var12)) (= var4 var13)) (= var5 var14)) (= var6 var15)) (= var7 var16)) (= var8 (writeHeap var17 var9 (O_node (node var10 (next (getnode (readHeap var17 var9)))))))) (is-O_node (readHeap var17 var9))) (is-O_node (readHeap var17 var9)))) (inv_main45 var8 var7 var6 var5 var4 var3 var2 var0))))
(assert (forall ((var0 Addr) (var1 Int) (var2 Addr) (var3 Int) (var4 Addr) (var5 Int) (var6 Int) (var7 Heap) (var8 Addr) (var9 Addr) (var10 Int) (var11 Addr) (var12 Int) (var13 Addr) (var14 Int) (var15 Int) (var16 Heap) (var17 Addr) (var18 Addr) (var19 Int) (var20 Addr) (var21 Int) (var22 Addr) (var23 Int) (var24 Int) (var25 Heap)) (or (not (and (and (and (and (and (and (and (and (and (and (and (and (and (and (and (and (and (and (and (and (inv_main68 var25 var24 var23 var22 var21 var20 var19 var18) (= var17 var8)) (= var0 var9)) (= var1 var10)) (= var2 var11)) (= var3 var12)) (= var4 var13)) (= var5 var14)) (= var6 var15)) (= var7 (writeHeap var16 var9 defObj))) (= var8 (next (getnode (readHeap var25 var18))))) (= var9 var18)) (= var10 var19)) (= var11 var20)) (= var12 var21)) (= var13 var22)) (= var14 var23)) (= var15 var24)) (= var16 var25)) (is-O_node (readHeap var25 var18))) (not (= var17 nullAddr)))) (inv_main68 var7 var6 var5 var4 var3 var2 var1 var17))))
(assert (forall ((var0 Int) (var1 Addr) (var2 Int) (var3 Addr) (var4 Int) (var5 Int) (var6 Heap)) (or (not (and (and (and (inv_main53 var6 var5 var4 var3 var2 var1 var0) (= var1 nullAddr)) (= var0 (+ 1 var5))) (not (= var3 nullAddr)))) (inv_main68 var6 var5 var4 var3 var2 var1 var0 var3))))
(assert (forall ((var0 Addr) (var1 Int) (var2 Addr) (var3 Int) (var4 Addr) (var5 Int) (var6 Int) (var7 Heap)) (or (not (and (and (inv_main56 var7 var6 var5 var4 var3 var2 var1 var0) (not (= var5 (data (getnode (readHeap var7 var2)))))) (is-O_node (readHeap var7 var2)))) (inv_main71 var7 var6 var5 var4 var3 var2 var1))))
(assert (forall ((var0 Int) (var1 Addr) (var2 Int) (var3 Addr) (var4 Int) (var5 Int) (var6 Heap)) (or (not (and (and (inv_main53 var6 var5 var4 var3 var2 var1 var0) (= var1 nullAddr)) (not (= var0 (+ 1 var5))))) (inv_main71 var6 var5 var4 var3 var2 var1 var0))))
(assert (forall ((var0 Int) (var1 Addr) (var2 Int) (var3 Addr) (var4 Int) (var5 Int) (var6 Heap)) (or (not (and (and (inv_main47 var6 var5 var4 var3 var2 var1) (not (= var2 (data (getnode (readHeap var6 var1)))))) (is-O_node (readHeap var6 var1)))) (inv_main71 var6 var5 var4 var3 var2 var1 var0))))
(assert (forall ((var0 Addr) (var1 Int) (var2 Int) (var3 Int) (var4 Int) (var5 Addr) (var6 Int) (var7 Int) (var8 Heap)) (or (not (and (and (inv_main37 var8 var7 var6 var5 var4 var3 var2 var1 var0) (is-O_node (readHeap var8 var0))) (is-O_node (readHeap var8 var0)))) (inv_main43 (writeHeap var8 var0 (O_node (node (data (getnode (readHeap var8 var0))) nullAddr))) var7 var6 var5 var4 var3 var2 var1 var0))))
(assert (forall ((var0 Addr) (var1 Int) (var2 Addr) (var3 Int) (var4 Int) (var5 Int) (var6 Int) (var7 Heap)) (not (and (inv_main17 var7 var6 var5 var4 var3 var2 var1 var0) (not (is-O_node (readHeap var7 var0)))))))
(assert (forall ((var0 Addr) (var1 Int) (var2 Addr) (var3 Int) (var4 Int) (var5 Int) (var6 Int) (var7 Heap)) (not (and (and (inv_main17 var7 var6 var5 var4 var3 var2 var1 var0) (not (is-O_node (readHeap var7 var0)))) (is-O_node (readHeap var7 var0))))))
(assert (forall ((var0 Addr) (var1 Int) (var2 Addr) (var3 Int) (var4 Int) (var5 Int) (var6 Int) (var7 Heap)) (not (and (inv_main23 var7 var6 var5 var4 var3 var2 var1 var0) (not (is-O_node (readHeap var7 var0)))))))
(assert (forall ((var0 Addr) (var1 Int) (var2 Addr) (var3 Int) (var4 Int) (var5 Int) (var6 Int) (var7 Heap)) (not (and (and (inv_main23 var7 var6 var5 var4 var3 var2 var1 var0) (not (is-O_node (readHeap var7 var0)))) (is-O_node (readHeap var7 var0))))))
(assert (forall ((var0 Addr) (var1 Addr) (var2 Int) (var3 Int) (var4 Int) (var5 Int) (var6 Heap)) (not (and (inv_main25 var6 var5 var4 var3 var2 var1 var0) (not (is-O_node (readHeap var6 var0)))))))
(assert (forall ((var0 Addr) (var1 Addr) (var2 Int) (var3 Int) (var4 Int) (var5 Int) (var6 Heap)) (not (and (and (inv_main25 var6 var5 var4 var3 var2 var1 var0) (not (is-O_node (readHeap var6 var0)))) (is-O_node (readHeap var6 var0))))))
(assert (forall ((var0 Addr) (var1 Int) (var2 Int) (var3 Int) (var4 Int) (var5 Addr) (var6 Int) (var7 Int) (var8 Heap)) (not (and (inv_main37 var8 var7 var6 var5 var4 var3 var2 var1 var0) (not (is-O_node (readHeap var8 var0)))))))
(assert (forall ((var0 Addr) (var1 Int) (var2 Int) (var3 Int) (var4 Int) (var5 Addr) (var6 Int) (var7 Int) (var8 Heap)) (not (and (and (inv_main37 var8 var7 var6 var5 var4 var3 var2 var1 var0) (not (is-O_node (readHeap var8 var0)))) (is-O_node (readHeap var8 var0))))))
(assert (forall ((var0 Addr) (var1 Int) (var2 Int) (var3 Int) (var4 Int) (var5 Addr) (var6 Int) (var7 Int) (var8 Heap)) (not (and (inv_main43 var8 var7 var6 var5 var4 var3 var2 var1 var0) (not (is-O_node (readHeap var8 var0)))))))
(assert (forall ((var0 Addr) (var1 Int) (var2 Int) (var3 Int) (var4 Int) (var5 Addr) (var6 Int) (var7 Int) (var8 Heap)) (not (and (and (inv_main43 var8 var7 var6 var5 var4 var3 var2 var1 var0) (not (is-O_node (readHeap var8 var0)))) (is-O_node (readHeap var8 var0))))))
(assert (forall ((var0 Addr) (var1 Int) (var2 Int) (var3 Int) (var4 Addr) (var5 Int) (var6 Int) (var7 Heap)) (not (and (inv_main45 var7 var6 var5 var4 var3 var2 var1 var0) (not (is-O_node (readHeap var7 var0)))))))
(assert (forall ((var0 Addr) (var1 Int) (var2 Int) (var3 Int) (var4 Addr) (var5 Int) (var6 Int) (var7 Heap)) (not (and (and (inv_main45 var7 var6 var5 var4 var3 var2 var1 var0) (not (is-O_node (readHeap var7 var0)))) (is-O_node (readHeap var7 var0))))))
(assert (forall ((var0 Addr) (var1 Int) (var2 Addr) (var3 Int) (var4 Int) (var5 Heap)) (not (and (inv_main47 var5 var4 var3 var2 var1 var0) (not (is-O_node (readHeap var5 var0)))))))
(assert (forall ((var0 Addr) (var1 Int) (var2 Addr) (var3 Int) (var4 Int) (var5 Heap)) (not (and (inv_main48 var5 var4 var3 var2 var1 var0) (not (is-O_node (readHeap var5 var0)))))))
(assert (forall ((var0 Int) (var1 Addr) (var2 Int) (var3 Addr) (var4 Int) (var5 Int) (var6 Heap)) (not (and (inv_main55 var6 var5 var4 var3 var2 var1 var0) (not (is-O_node (readHeap var6 var1)))))))
(assert (forall ((var0 Addr) (var1 Int) (var2 Addr) (var3 Int) (var4 Addr) (var5 Int) (var6 Int) (var7 Heap)) (not (and (inv_main56 var7 var6 var5 var4 var3 var2 var1 var0) (not (is-O_node (readHeap var7 var2)))))))
(assert (forall ((var0 Addr) (var1 Int) (var2 Addr) (var3 Int) (var4 Addr) (var5 Int) (var6 Int) (var7 Heap)) (not (and (inv_main68 var7 var6 var5 var4 var3 var2 var1 var0) (not (is-O_node (readHeap var7 var0)))))))
(assert (forall ((var0 Int) (var1 Addr) (var2 Int) (var3 Addr) (var4 Int) (var5 Int) (var6 Heap)) (not (inv_main71 var6 var5 var4 var3 var2 var1 var0))))
(check-sat)
